1652085000
1652107500
1652178600
1652196900
1652265000
1652274900
1652274900
1652278500
1652367180
1652369400
1652351400
1652369460
1652367240
1652369520
1652694600
1652713200
1652776800
1652800500
1652866200
1652883300
1652955000
1652969700
1653039000
1653065100
1653388200
1653404400
1653471000
1653491400
1653643800
1653658200
1653904800
1653922800
1653993000
1654008300
